25 2
25 1000
20
30
10
40
20
20
20
10
20
30
40
20
10
10
20
20
20
20
40
10
10
40
30
10
20
40 50 0 960 0 0
25 85 0 911 10 1
22 75 0 919 10 3
22 85 0 910 10 1
20 80 644 764 10 1
20 85 0 909 10 3
18 75 388 508 10 2
15 75 0 914 10 2
15 80 367 487 10 3
10 35 371 491 10 1
10 40 519 639 10 3
8 40 195 315 10 2
8 45 0 917 10 1
5 35 653 773 10 1
5 45 0 914 10 2
2 40 174 294 10 1
0 40 0 908 10 1
0 45 703 823 10 3
44 5 0 904 10 2
42 10 0 909 10 2
42 15 0 914 10 1
40 5 0 905 10 2
40 15 375 495 10 2
38 5 201 321 10 2
38 15 0 914 10 3
35 5 784 904 10 2
43 84 0 960 5 4
42 29 0 960 5 4
0 0
1 0
0 0
0 0
1 0
1 0
1 0
1 0
0 0
0 1
0 1
0 0
0 0
0 1
0 0
0 0
0 1
0 1
0 1
0 0
0 1
0 1
0 1
0 1
0 1
